[on. 05. april 15:03:30 +0200 2023]  ./input/alternate_g_np_100/100-1-3.gcc
Set parameter Username
Academic license - for non-commercial use only - expires 2024-03-28
Set parameter TimeLimit to value 1800
Set parameter PreCrush to value 1
Set parameter LazyConstraints to value 1
Gurobi Optimizer version 10.0.1 build v10.0.1rc0 (linux64)

CPU model: AMD Ryzen 9 5950X 16-Core Processor, instruction set [SSE2|AVX|AVX2]
Thread count: 16 physical cores, 32 logical processors, using up to 32 threads

Optimize a model with 106 rows, 700 columns and 1900 nonzeros
Model fingerprint: 0x9d84515c
Variable types: 0 continuous, 700 integer (700 binary)
Coefficient statistics:
  Matrix range     [1e+00, 1e+00]
  Objective range  [2e+00, 1e+02]
  Bounds range     [1e+00, 1e+00]
  RHS range        [1e+00, 1e+00]
Presolve added 5 rows and 5 columns
Presolve time: 0.00s
Presolved: 111 rows, 705 columns, 1415 nonzeros
Variable types: 0 continuous, 705 integer (700 binary)

Root relaxation: objective 4.891000e+03, 1 iterations, 0.00 seconds (0.00 work units)

    Nodes    |    Current Node    |     Objective Bounds      |     Work
 Expl Unexpl |  Obj  Depth IntInf | Incumbent    BestBd   Gap | It/Node Time

     0     0 4891.00000    0    -          - 4891.00000      -     -    0s
     0     0 4891.00000    0    -          - 4891.00000      -     -    0s
     0     0 4891.00000    0    -          - 4891.00000      -     -    0s
     0     0 4891.00000    0    -          - 4891.00000      -     -    0s
     0     0 4891.00000    0    -          - 4891.00000      -     -    0s
     0     0 4891.00000    0    8          - 4891.00000      -     -    0s
     0     0 4891.00000    0   11          - 4891.00000      -     -    0s
     0     0 4891.00000    0    -          - 4891.00000      -     -    0s
     0     0 4891.00000    0   11          - 4891.00000      -     -    0s
     0     0 4891.00000    0   12          - 4891.00000      -     -    0s
     0     0 4891.00000    0    -          - 4891.00000      -     -    0s
     0     0 4891.00000    0   10          - 4891.00000      -     -    0s
     0     0 4891.00000    0    -          - 4891.00000      -     -    0s
     0     0 4891.00000    0    -          - 4891.00000      -     -    0s
     0     0 4891.00000    0    9          - 4891.00000      -     -    0s
     0     2 4891.00000    0    7          - 4891.00000      -     -    0s
 34895 16658 4863.33333   41   49          - 4891.00000      -  15.0    5s
 66109 37929 4862.25000   23   77          - 4891.00000      -  18.7   10s
 94284 61057 4765.50000   31   27          - 4891.00000      -  21.9   15s
 123637 82879 4522.00000   47    -          - 4891.00000      -  24.6   20s
 148045 104466 4770.15625   32  167          - 4891.00000      -  26.6   25s
 173155 125071 4696.50000   35   30          - 4891.00000      -  28.7   30s
 195074 141589 4471.00000   70    9          - 4891.00000      -  31.2   35s
 214551 158052 4581.50000   37   23          - 4891.00000      -  34.2   40s
 233489 174594 4695.87500   41   57          - 4891.00000      -  37.3   45s
 250504 189320 4767.71429   37   95          - 4891.00000      -  40.3   50s
 266353 201763 4700.00000   34    9          - 4891.00000      -  42.5   57s
*266406 191709              29    4526.0000009 4526.00000  0.00%  42.6   59s

Cutting planes:
  User: 6
  Gomory: 9
  Clique: 10
  MIR: 1
  StrongCG: 1
  Flow cover: 2
  Zero half: 131
  Lazy constraints: 22

Explored 266406 nodes (11349622 simplex iterations) in 59.22 seconds (37.66 work units)
Thread count was 32 (of 32 available processors)

Solution count 1: 4526 

Optimal solution found (tolerance 1.00e-04)
Best objective 4.526000000923e+03, best bound 4.526000000923e+03, gap 0.0000%

User-callback calls 539634, time in user-callback 12.59 sec
Minimal separator inequalities added: 267284
Indegree inequalities added: 0
WRONG SOLUTION
[on. 05. april 15:04:29 +0200 2023]  done

